p cnf 1000 2843
-12 0
-13 0
-14 0
-15 0
-16 0
-17 0
-18 0
-19 0
-20 0
-21 0
-22 0
-23 0
-24 0
-25 0
-26 0
-27 0
-28 0
-29 0
-30 0
-31 0
-32 0
-33 0
-34 0
-35 0
-36 0
-37 0
-38 0
-39 0
-40 0
-41 0
-42 0
-43 0
-44 0
-45 0
-46 0
-47 0
-48 0
-49 0
-50 0
-51 0
-52 0
-53 0
-54 0
-55 0
-56 0
-57 0
-58 0
-59 0
-60 0
-61 0
-62 0
-63 0
527 -523 -60 0
-527 523 0
-527 60 0
523 -522 -62 0
-523 522 0
-523 62 0
522 -521 511 0
-522 521 0
-522 -511 0
521 -520 512 0
-521 520 0
-521 -512 0
520 -519 513 0
-520 519 0
-520 -513 0
519 -518 514 0
-519 518 0
-519 -514 0
518 -517 199 0
-518 517 0
-518 -199 0
517 516 515 0
-517 -516 0
-517 -515 0
516 401 44 0
-516 -401 0
-516 -44 0
401 46 45 0
-401 -46 0
-401 -45 0
515 -41 -40 0
-515 41 0
-515 40 0
199 34 -33 0
-199 -34 0
-199 33 0
514 392 -28 0
-514 -392 0
-514 28 0
392 -30 -29 0
-392 30 0
-392 29 0
513 -26 25 0
-513 26 0
-513 -25 0
512 -23 -22 0
-512 23 0
-512 22 0
511 510 -12 0
-511 -510 0
-511 12 0
510 14 13 0
-510 -14 0
-510 -13 0
71 -70 -63 0
-71 70 0
-71 63 0
70 69 68 0
-70 -69 0
-70 -68 0
69 -67 -31 0
-69 67 0
-69 31 0
67 -66 12 0
-67 66 0
-67 -12 0
66 -65 -13 0
-66 65 0
-66 13 0
65 -64 -14 0
-65 64 0
-65 14 0
64 16 -15 0
-64 -16 0
-64 15 0
68 67 17 0
-68 -67 0
-68 -17 0
76 -75 -63 0
-76 75 0
-76 63 0
75 74 72 0
-75 -74 0
-75 -72 0
74 73 -67 0
-74 -73 0
-74 67 0
73 -34 -33 0
-73 34 0
-73 33 0
72 67 18 0
-72 -67 0
-72 -18 0
80 -79 -63 0
-80 79 0
-80 63 0
79 78 77 0
-79 -78 0
-79 -77 0
78 67 19 0
-78 -67 0
-78 -19 0
77 -67 32 0
-77 67 0
-77 -32 0
92 -91 -63 0
-92 91 0
-92 63 0
91 90 84 0
-91 -90 0
-91 -84 0
90 89 67 0
-90 -89 0
-90 -67 0
89 88 -20 0
-89 -88 0
-89 20 0
88 -87 12 0
-88 87 0
-88 -12 0
87 -86 13 0
-87 86 0
-87 -13 0
86 -85 14 0
-86 85 0
-86 -14 0
85 -16 15 0
-85 16 0
-85 -15 0
84 -83 12 0
-84 83 0
-84 -12 0
83 -82 13 0
-83 82 0
-83 -13 0
82 -81 14 0
-82 81 0
-82 -14 0
81 -16 -15 0
-81 16 0
-81 15 0
110 109 -63 0
-110 -109 0
-110 63 0
109 108 95 0
-109 -108 0
-109 -95 0
108 -107 98 0
-108 107 0
-108 -98 0
107 -106 102 0
-107 106 0
-107 -102 0
106 105 -21 0
-106 -105 0
-106 21 0
105 -104 12 0
-105 104 0
-105 -12 0
104 -103 13 0
-104 103 0
-104 -13 0
103 -99 14 0
-103 99 0
-103 -14 0
99 16 15 0
-99 -16 0
-99 -15 0
102 -101 12 0
-102 101 0
-102 -12 0
101 -100 13 0
-101 100 0
-101 -13 0
100 -99 -14 0
-100 99 0
-100 14 0
98 -97 12 0
-98 97 0
-98 -12 0
97 -96 13 0
-97 96 0
-97 -13 0
96 -85 -14 0
-96 85 0
-96 14 0
95 -94 12 0
-95 94 0
-95 -12 0
94 -93 -13 0
-94 93 0
-94 13 0
93 -81 -14 0
-93 81 0
-93 14 0
116 -115 -63 0
-116 115 0
-116 63 0
115 114 112 0
-115 -114 0
-115 -112 0
114 113 24 0
-114 -113 0
-114 -24 0
113 -83 -12 0
-113 83 0
-113 12 0
112 -111 12 0
-112 111 0
-112 -12 0
111 -86 -13 0
-111 86 0
-111 13 0
122 121 -63 0
-122 -121 0
-122 63 0
121 120 119 0
-121 -120 0
-121 -119 0
120 118 -25 0
-120 -118 0
-120 25 0
118 -104 -12 0
-118 104 0
-118 12 0
119 -118 117 0
-119 118 0
-119 -117 0
117 34 33 0
-117 -34 0
-117 -33 0
128 -127 -63 0
-128 127 0
-128 63 0
127 126 123 0
-127 -126 0
-127 -123 0
126 125 -118 0
-126 -125 0
-126 118 0
125 124 117 0
-125 -124 0
-125 -117 0
124 -73 -35 0
-124 73 0
-124 35 0
123 118 26 0
-123 -118 0
-123 -26 0
133 132 -63 0
-133 -132 0
-133 63 0
132 131 118 0
-132 -131 0
-132 -118 0
131 130 -27 0
-131 -130 0
-131 27 0
130 -129 12 0
-130 129 0
-130 -12 0
129 -65 13 0
-129 65 0
-129 -13 0
150 -149 -63 0
-150 149 0
-150 63 0
149 -148 135 0
-149 148 0
-149 -135 0
148 -147 137 0
-148 147 0
-148 -137 0
147 -146 139 0
-147 146 0
-147 -139 0
146 145 144 0
-146 -145 0
-146 -144 0
145 -118 -117 0
-145 118 0
-145 117 0
144 143 118 0
-144 -143 0
-144 -118 0
143 -142 98 0
-143 142 0
-143 -98 0
142 -141 102 0
-142 141 0
-142 -102 0
141 -140 67 0
-141 140 0
-141 -67 0
140 112 -28 0
-140 -112 0
-140 28 0
139 -138 12 0
-139 138 0
-139 -12 0
138 -82 -13 0
-138 82 0
-138 13 0
137 -136 12 0
-137 136 0
-137 -12 0
136 -100 -13 0
-136 100 0
-136 13 0
135 -134 12 0
-135 134 0
-135 -12 0
134 -96 -13 0
-134 96 0
-134 13 0
160 -159 -63 0
-160 159 0
-160 63 0
159 158 135 0
-159 -158 0
-159 -135 0
158 -157 137 0
-158 157 0
-158 -137 0
157 -156 139 0
-157 156 0
-157 -139 0
156 155 119 0
-156 -155 0
-156 -119 0
155 154 118 0
-155 -154 0
-155 -118 0
154 -153 98 0
-154 153 0
-154 -98 0
153 152 102 0
-153 -152 0
-153 -102 0
152 151 67 0
-152 -151 0
-152 -67 0
151 112 29 0
-151 -112 0
-151 -29 0
174 -173 -63 0
-174 173 0
-174 63 0
173 -172 135 0
-173 172 0
-173 -135 0
172 171 137 0
-172 -171 0
-172 -137 0
171 -170 139 0
-171 170 0
-171 -139 0
170 169 119 0
-170 -169 0
-170 -119 0
169 168 118 0
-169 -168 0
-169 -118 0
168 167 166 0
-168 -167 0
-168 -166 0
167 -98 -73 0
-167 98 0
-167 73 0
166 165 98 0
-166 -165 0
-166 -98 0
165 164 163 0
-165 -164 0
-165 -163 0
164 -102 -73 0
-164 102 0
-164 73 0
163 162 102 0
-163 -162 0
-163 -102 0
162 161 67 0
-162 -161 0
-162 -67 0
161 112 -30 0
-161 -112 0
-161 30 0
185 184 -63 0
-185 -184 0
-185 63 0
184 183 181 0
-184 -183 0
-184 -181 0
183 -182 -118 0
-183 182 0
-183 118 0
182 -117 -31 0
-182 117 0
-182 31 0
181 180 118 0
-181 -180 0
-181 -118 0
180 179 178 0
-180 -179 0
-180 -178 0
179 -98 73 0
-179 98 0
-179 -73 0
178 177 98 0
-178 -177 0
-178 -98 0
177 176 175 0
-177 -176 0
-177 -175 0
176 102 -31 0
-176 -102 0
-176 31 0
175 -102 73 0
-175 102 0
-175 -73 0
198 -197 -63 0
-198 197 0
-198 63 0
197 196 192 0
-197 -196 0
-197 -192 0
196 195 -118 0
-196 -195 0
-196 118 0
195 194 193 0
-195 -194 0
-195 -193 0
194 117 -32 0
-194 -117 0
-194 32 0
193 -117 32 0
-193 117 0
-193 -32 0
192 191 118 0
-192 -191 0
-192 -118 0
191 190 189 0
-191 -190 0
-191 -189 0
190 -98 -32 0
-190 98 0
-190 32 0
189 188 98 0
-189 -188 0
-189 -98 0
188 187 186 0
-188 -187 0
-188 -186 0
187 -102 -32 0
-187 102 0
-187 32 0
186 102 32 0
-186 -102 0
-186 -32 0
211 -210 -63 0
-211 210 0
-211 63 0
210 -209 118 0
-210 209 0
-210 -118 0
209 208 206 0
-209 -208 0
-209 -206 0
208 207 -98 0
-208 -207 0
-208 98 0
207 -34 33 0
-207 34 0
-207 -33 0
206 205 98 0
-206 -205 0
-206 -98 0
205 204 200 0
-205 -204 0
-205 -200 0
204 203 102 0
-204 -203 0
-204 -102 0
203 202 201 0
-203 -202 0
-203 -201 0
202 -112 22 0
-202 112 0
-202 -22 0
201 112 33 0
-201 -112 0
-201 -33 0
200 199 -102 0
-200 -199 0
-200 102 0
222 -221 -63 0
-222 221 0
-222 63 0
221 220 118 0
-221 -220 0
-221 -118 0
220 219 218 0
-220 -219 0
-220 -218 0
219 -207 -98 0
-219 207 0
-219 98 0
218 217 98 0
-218 -217 0
-218 -98 0
217 216 215 0
-217 -216 0
-217 -215 0
216 -207 -102 0
-216 207 0
-216 102 0
215 214 102 0
-215 -214 0
-215 -102 0
214 213 212 0
-214 -213 0
-214 -212 0
213 112 -34 0
-213 -112 0
-213 34 0
212 -112 23 0
-212 112 0
-212 -23 0
231 -230 -63 0
-231 230 0
-231 63 0
230 -229 118 0
-230 229 0
-230 -118 0
229 228 227 0
-229 -228 0
-229 -227 0
228 124 -98 0
-228 -124 0
-228 98 0
227 226 98 0
-227 -226 0
-227 -98 0
226 225 224 0
-226 -225 0
-226 -224 0
225 124 -102 0
-225 -124 0
-225 102 0
224 -223 102 0
-224 223 0
-224 -102 0
223 67 35 0
-223 -67 0
-223 -35 0
237 -236 -63 0
-237 236 0
-237 63 0
236 -235 137 0
-236 235 0
-236 -137 0
235 -234 139 0
-235 234 0
-235 -139 0
234 -233 98 0
-234 233 0
-234 -98 0
233 232 102 0
-233 -232 0
-233 -102 0
232 67 36 0
-232 -67 0
-232 -36 0
244 -243 -63 0
-244 243 0
-244 63 0
243 -242 137 0
-243 242 0
-243 -137 0
242 -241 139 0
-242 241 0
-242 -139 0
241 -240 98 0
-241 240 0
-241 -98 0
240 239 102 0
-240 -239 0
-240 -102 0
239 -238 105 0
-239 238 0
-239 -105 0
238 88 37 0
-238 -88 0
-238 -37 0
250 -249 -63 0
-250 249 0
-250 63 0
249 -248 135 0
-249 248 0
-249 -135 0
248 247 245 0
-248 -247 0
-248 -245 0
247 -246 -118 0
-247 246 0
-247 118 0
246 -117 38 0
-246 117 0
-246 -38 0
245 118 38 0
-245 -118 0
-245 -38 0
262 -261 -63 0
-262 261 0
-262 63 0
261 260 258 0
-261 -260 0
-261 -258 0
260 -259 -253 0
-260 259 0
-260 253 0
259 -47 39 0
-259 47 0
-259 -39 0
253 -252 12 0
-253 252 0
-253 -12 0
252 -251 -13 0
-252 251 0
-252 13 0
251 -64 14 0
-251 64 0
-251 -14 0
258 -257 253 0
-258 257 0
-258 -253 0
257 256 255 0
-257 -256 0
-257 -255 0
256 135 -39 0
-256 -135 0
-256 39 0
255 -254 -12 0
-255 254 0
-255 12 0
254 -251 13 0
-254 251 0
-254 -13 0
267 -266 -63 0
-267 266 0
-267 63 0
266 265 264 0
-266 -265 0
-266 -264 0
265 263 40 0
-265 -263 0
-265 -40 0
263 -87 -12 0
-263 87 0
-263 12 0
264 -263 51 0
-264 263 0
-264 -51 0
272 -271 -63 0
-272 271 0
-272 63 0
271 270 269 0
-271 -270 0
-271 -269 0
270 263 41 0
-270 -263 0
-270 -41 0
269 268 -263 0
-269 -268 0
-269 263 0
268 51 50 0
-268 -51 0
-268 -50 0
277 276 -63 0
-277 -276 0
-277 63 0
276 275 263 0
-276 -275 0
-276 -263 0
275 274 -42 0
-275 -274 0
-275 42 0
274 -273 12 0
-274 273 0
-274 -12 0
273 -93 13 0
-273 93 0
-273 -13 0
282 281 -63 0
-282 -281 0
-282 63 0
281 280 255 0
-281 -280 0
-281 -255 0
280 279 -43 0
-280 -279 0
-280 43 0
279 -278 12 0
-279 278 0
-279 -12 0
278 -103 -13 0
-278 103 0
-278 13 0
291 290 -63 0
-291 -290 0
-291 63 0
290 289 287 0
-290 -289 0
-290 -287 0
289 288 -253 0
-289 -288 0
-289 253 0
288 47 44 0
-288 -47 0
-288 -44 0
287 -286 253 0
-287 286 0
-287 -253 0
286 -285 255 0
-286 285 0
-286 -255 0
285 284 95 0
-285 -284 0
-285 -95 0
284 -283 263 0
-284 283 0
-284 -263 0
283 84 44 0
-283 -84 0
-283 -44 0
302 -301 -63 0
-302 301 0
-302 63 0
301 300 298 0
-301 -300 0
-301 -298 0
300 299 -253 0
-300 -299 0
-300 253 0
299 47 -45 0
-299 -47 0
-299 45 0
298 297 253 0
-298 -297 0
-298 -253 0
297 -296 255 0
-297 296 0
-297 -255 0
296 295 95 0
-296 -295 0
-296 -95 0
295 294 263 0
-295 -294 0
-295 -263 0
294 293 292 0
-294 -293 0
-294 -292 0
293 -84 61 0
-293 84 0
-293 -61 0
292 84 45 0
-292 -84 0
-292 -45 0
311 -310 -63 0
-311 310 0
-311 63 0
310 309 307 0
-310 -309 0
-310 -307 0
309 308 -253 0
-309 -308 0
-309 253 0
308 47 -46 0
-308 -47 0
-308 46 0
307 306 253 0
-307 -306 0
-307 -253 0
306 -305 255 0
-306 305 0
-306 -255 0
305 -304 95 0
-305 304 0
-305 -95 0
304 303 263 0
-304 -303 0
-304 -263 0
303 84 46 0
-303 -84 0
-303 -46 0
315 -314 -63 0
-315 314 0
-315 63 0
314 313 255 0
-314 -313 0
-314 -255 0
313 312 264 0
-313 -312 0
-313 -264 0
312 263 -47 0
-312 -263 0
-312 47 0
319 -318 -63 0
-319 318 0
-319 63 0
318 317 316 0
-318 -317 0
-318 -316 0
317 263 48 0
-317 -263 0
-317 -48 0
316 -263 -52 0
-316 263 0
-316 52 0
322 -321 -63 0
-322 321 0
-322 63 0
321 320 253 0
-321 -320 0
-321 -253 0
320 263 49 0
-320 -263 0
-320 -49 0
326 -325 -63 0
-326 325 0
-326 63 0
325 324 323 0
-325 -324 0
-325 -323 0
324 84 50 0
-324 -84 0
-324 -50 0
323 -84 17 0
-323 84 0
-323 -17 0
330 -329 -63 0
-330 329 0
-330 63 0
329 328 327 0
-329 -328 0
-329 -327 0
328 84 51 0
-328 -84 0
-328 -51 0
327 -84 18 0
-327 84 0
-327 -18 0
334 -333 -63 0
-334 333 0
-334 63 0
333 332 331 0
-333 -332 0
-333 -331 0
332 84 52 0
-332 -84 0
-332 -52 0
331 -84 19 0
-331 84 0
-331 -19 0
350 349 -63 0
-350 -349 0
-350 63 0
349 348 346 0
-349 -348 0
-349 -346 0
348 347 -253 0
-348 -347 0
-348 253 0
347 53 47 0
-347 -53 0
-347 -47 0
346 -345 253 0
-346 345 0
-346 -253 0
345 344 255 0
-345 -344 0
-345 -255 0
344 343 339 0
-344 -343 0
-344 -339 0
343 -342 -95 0
-343 342 0
-343 95 0
342 341 -53 0
-342 -341 0
-342 53 0
341 -340 -44 0
-341 340 0
-341 44 0
340 46 -45 0
-340 -46 0
-340 45 0
339 338 95 0
-339 -338 0
-339 -95 0
338 337 335 0
-338 -337 0
-338 -335 0
337 336 -84 0
-337 -336 0
-337 84 0
336 61 53 0
-336 -61 0
-336 -53 0
335 84 -53 0
-335 -84 0
-335 53 0
359 -358 -63 0
-359 358 0
-359 63 0
358 -357 253 0
-358 357 0
-358 -253 0
357 -356 352 0
-357 356 0
-357 -352 0
356 355 354 0
-356 -355 0
-356 -354 0
355 -145 54 0
-355 145 0
-355 -54 0
354 -353 54 0
-354 353 0
-354 -54 0
353 118 84 0
-353 -118 0
-353 -84 0
352 351 -84 0
-352 -351 0
-352 84 0
351 61 -54 0
-351 -61 0
-351 54 0
362 -361 -63 0
-362 361 0
-362 63 0
361 360 118 0
-361 -360 0
-361 -118 0
360 112 55 0
-360 -112 0
-360 -55 0
367 -366 -63 0
-367 366 0
-367 63 0
366 -365 255 0
-366 365 0
-366 -255 0
365 364 363 0
-365 -364 0
-365 -363 0
364 -118 57 0
-364 118 0
-364 -57 0
363 118 58 0
-363 -118 0
-363 -58 0
368 -63 -59 0
-368 63 0
-368 59 0
526 525 372 0
-526 -525 0
-526 -372 0
525 524 -63 0
-525 -524 0
-525 63 0
524 -523 -509 0
-524 523 0
-524 509 0
509 -508 373 0
-509 508 0
-509 -373 0
508 -507 374 0
-508 507 0
-508 -374 0
507 -506 375 0
-507 506 0
-507 -375 0
506 -505 376 0
-506 505 0
-506 -376 0
505 -504 377 0
-505 504 0
-505 -377 0
504 -503 378 0
-504 503 0
-504 -378 0
503 -502 382 0
-503 502 0
-503 -382 0
502 -501 386 0
-502 501 0
-502 -386 0
501 -500 390 0
-501 500 0
-501 -390 0
500 -499 391 0
-500 499 0
-500 -391 0
499 -498 395 0
-499 498 0
-499 -395 0
498 -497 397 0
-498 497 0
-498 -397 0
497 -496 398 0
-497 496 0
-497 -398 0
496 -495 400 0
-496 495 0
-496 -400 0
495 -494 404 0
-495 494 0
-495 -404 0
494 -493 408 0
-494 493 0
-494 -408 0
493 -492 413 0
-493 492 0
-493 -413 0
492 -491 416 0
-492 491 0
-492 -416 0
491 -490 418 0
-491 490 0
-491 -418 0
490 -489 433 0
-490 489 0
-490 -433 0
489 -488 -440 0
-489 488 0
-489 440 0
488 -487 -449 0
-488 487 0
-488 449 0
487 -486 -479 0
-487 486 0
-487 479 0
486 485 484 0
-486 -485 0
-486 -484 0
485 483 -9 0
-485 -483 0
-485 9 0
483 482 255 0
-483 -482 0
-483 -255 0
482 481 480 0
-482 -481 0
-482 -480 0
481 263 -57 0
-481 -263 0
-481 57 0
480 444 -263 0
-480 -444 0
-480 263 0
444 271 -266 0
-444 -271 0
-444 266 0
484 -483 9 0
-484 483 0
-484 -9 0
479 478 477 0
-479 -478 0
-479 -477 0
478 -476 -10 0
-478 476 0
-478 10 0
476 475 450 0
-476 -475 0
-476 -450 0
475 474 255 0
-475 -474 0
-475 -255 0
474 473 464 0
-474 -473 0
-474 -464 0
473 472 -263 0
-473 -472 0
-473 263 0
472 -471 59 0
-472 471 0
-472 -59 0
471 -470 -56 0
-471 470 0
-471 56 0
470 -469 -455 0
-470 469 0
-470 455 0
469 468 466 0
-469 -468 0
-469 -466 0
468 -467 57 0
-468 467 0
-468 -57 0
467 -271 266 0
-467 271 0
-467 -266 0
466 -465 -57 0
-466 465 0
-466 57 0
465 271 266 0
-465 -271 0
-465 -266 0
455 58 -55 0
-455 -58 0
-455 55 0
464 463 263 0
-464 -463 0
-464 -263 0
463 462 454 0
-463 -462 0
-463 -454 0
462 461 -118 0
-462 -461 0
-462 118 0
461 -460 -455 0
-461 460 0
-461 455 0
460 459 457 0
-460 -459 0
-460 -457 0
459 -458 56 0
-459 458 0
-459 -56 0
458 -127 121 0
-458 127 0
-458 -121 0
457 -456 -56 0
-457 456 0
-457 56 0
456 127 -121 0
-456 -127 0
-456 121 0
454 453 118 0
-454 -453 0
-454 -118 0
453 452 451 0
-453 -452 0
-453 -451 0
452 112 -60 0
-452 -112 0
-452 60 0
451 -112 -55 0
-451 112 0
-451 55 0
450 -255 58 0
-450 255 0
-450 -58 0
477 476 10 0
-477 -476 0
-477 -10 0
449 448 447 0
-449 -448 0
-449 -447 0
448 -446 8 0
-448 446 0
-448 -8 0
446 445 443 0
-446 -445 0
-446 -443 0
445 -444 -263 0
-445 444 0
-445 263 0
443 442 263 0
-443 -442 0
-443 -263 0
442 441 118 0
-442 -441 0
-442 -118 0
441 112 56 0
-441 -112 0
-441 -56 0
447 446 -8 0
-447 -446 0
-447 8 0
440 439 438 0
-440 -439 0
-440 -438 0
439 -437 -61 0
-439 437 0
-439 61 0
437 436 -49 0
-437 -436 0
-437 49 0
436 435 434 0
-436 -435 0
-436 -434 0
435 -333 48 0
-435 333 0
-435 -48 0
434 333 -48 0
-434 -333 0
-434 48 0
438 437 61 0
-438 -437 0
-438 -61 0
433 432 427 0
-433 -432 0
-433 -427 0
432 -431 -422 0
-432 431 0
-432 422 0
431 430 429 0
-431 -430 0
-431 -429 0
430 428 -6 0
-430 -428 0
-430 6 0
428 113 -22 0
-428 -113 0
-428 22 0
429 -428 6 0
-429 428 0
-429 -6 0
422 421 420 0
-422 -421 0
-422 -420 0
421 419 -7 0
-421 -419 0
-421 7 0
419 113 -23 0
-419 -113 0
-419 23 0
420 -419 7 0
-420 419 0
-420 -7 0
427 -426 -422 0
-427 426 0
-427 422 0
426 425 424 0
-426 -425 0
-426 -424 0
425 -423 -6 0
-425 423 0
-425 6 0
423 113 22 0
-423 -113 0
-423 -22 0
424 423 6 0
-424 -423 0
-424 -6 0
418 417 -253 0
-418 -417 0
-418 253 0
417 -54 53 0
-417 54 0
-417 -53 0
416 415 -255 0
-416 -415 0
-416 255 0
415 -414 43 0
-415 414 0
-415 -43 0
414 -401 -44 0
-414 401 0
-414 44 0
413 412 -95 0
-413 -412 0
-413 95 0
412 411 21 0
-412 -411 0
-412 -21 0
411 410 341 0
-411 -410 0
-411 -341 0
410 -409 -44 0
-410 409 0
-410 44 0
409 -46 45 0
-409 46 0
-409 -45 0
408 407 -263 0
-408 -407 0
-408 263 0
407 -406 42 0
-407 406 0
-407 -42 0
406 -405 -44 0
-406 405 0
-406 44 0
405 -46 -45 0
-405 46 0
-405 45 0
404 403 -84 0
-404 -403 0
-404 84 0
403 -402 -20 0
-403 402 0
-403 20 0
402 -401 44 0
-402 401 0
-402 -44 0
400 399 -135 0
-400 -399 0
-400 135 0
399 -39 -38 0
-399 39 0
-399 38 0
398 396 -137 0
-398 -396 0
-398 137 0
396 -37 -36 0
-396 37 0
-396 36 0
397 396 -139 0
-397 -396 0
-397 139 0
395 394 -118 0
-395 -394 0
-395 118 0
394 -393 27 0
-394 393 0
-394 -27 0
393 -392 28 0
-393 392 0
-393 -28 0
391 389 -98 0
-391 -389 0
-391 98 0
389 -388 -21 0
-389 388 0
-389 21 0
388 -387 28 0
-388 387 0
-388 -28 0
387 -30 29 0
-387 30 0
-387 -29 0
390 389 -102 0
-390 -389 0
-390 102 0
386 385 -67 0
-386 -385 0
-386 67 0
385 -384 20 0
-385 384 0
-385 -20 0
384 -383 28 0
-384 383 0
-384 -28 0
383 30 -29 0
-383 -30 0
-383 29 0
382 381 -112 0
-382 -381 0
-382 112 0
381 -380 -24 0
-381 380 0
-381 24 0
380 -379 28 0
-380 379 0
-380 -28 0
379 30 29 0
-379 -30 0
-379 -29 0
378 -105 21 0
-378 105 0
-378 -21 0
377 -88 20 0
-377 88 0
-377 -20 0
376 -279 43 0
-376 279 0
-376 -43 0
375 -274 42 0
-375 274 0
-375 -42 0
374 -130 27 0
-374 130 0
-374 -27 0
373 -113 -24 0
-373 113 0
-373 24 0
372 371 63 0
-372 -371 0
-372 -63 0
371 -370 10 0
-371 370 0
-371 -10 0
370 -369 9 0
-370 369 0
-370 -9 0
369 8 7 0
-369 -8 0
-369 -7 0
528 0
-529 0
-527 0
c iter 0 
530 -531 -10 0
-530 531 0
-530 10 0
531 -532 -526 0
-531 532 0
-531 526 0
532 -533 534 0
-532 533 0
-532 -534 0
533 -535 536 0
-533 535 0
-533 -536 0
535 -537 538 0
-535 537 0
-535 -538 0
537 -539 540 0
-537 539 0
-537 -540 0
539 -541 542 0
-539 541 0
-539 -542 0
541 543 544 0
-541 -543 0
-541 -544 0
543 545 291 0
-543 -545 0
-543 -291 0
545 311 302 0
-545 -311 0
-545 -302 0
544 -272 -267 0
-544 272 0
-544 267 0
542 222 -211 0
-542 -222 0
-542 211 0
540 546 -150 0
-540 -546 0
-540 150 0
546 -174 -160 0
-546 174 0
-546 160 0
538 -128 122 0
-538 128 0
-538 -122 0
536 -7 -6 0
-536 7 0
-536 6 0
534 547 -1 0
-534 -547 0
-534 1 0
547 3 2 0
-547 -3 0
-547 -2 0
548 -549 -528 0
-548 549 0
-548 528 0
549 550 551 0
-549 -550 0
-549 -551 0
550 -552 -185 0
-550 552 0
-550 185 0
552 -553 1 0
-552 553 0
-552 -1 0
553 -554 -2 0
-553 554 0
-553 2 0
554 -555 -3 0
-554 555 0
-554 3 0
555 5 -4 0
-555 -5 0
-555 4 0
551 552 71 0
-551 -552 0
-551 -71 0
556 -557 -528 0
-556 557 0
-556 528 0
557 558 559 0
-557 -558 0
-557 -559 0
558 560 -552 0
-558 -560 0
-558 552 0
560 -222 -211 0
-560 222 0
-560 211 0
559 552 76 0
-559 -552 0
-559 -76 0
561 -562 -528 0
-561 562 0
-561 528 0
562 563 564 0
-562 -563 0
-562 -564 0
563 552 80 0
-563 -552 0
-563 -80 0
564 -552 198 0
-564 552 0
-564 -198 0
565 -566 -528 0
-565 566 0
-565 528 0
566 567 568 0
-566 -567 0
-566 -568 0
567 569 552 0
-567 -569 0
-567 -552 0
569 570 -92 0
-569 -570 0
-569 92 0
570 -571 1 0
-570 571 0
-570 -1 0
571 -572 2 0
-571 572 0
-571 -2 0
572 -573 3 0
-572 573 0
-572 -3 0
573 -5 4 0
-573 5 0
-573 -4 0
568 -574 1 0
-568 574 0
-568 -1 0
574 -575 2 0
-574 575 0
-574 -2 0
575 -576 3 0
-575 576 0
-575 -3 0
576 -5 -4 0
-576 5 0
-576 4 0
577 578 -528 0
-577 -578 0
-577 528 0
578 579 580 0
-578 -579 0
-578 -580 0
579 -581 582 0
-579 581 0
-579 -582 0
581 -583 584 0
-581 583 0
-581 -584 0
583 585 -110 0
-583 -585 0
-583 110 0
585 -586 1 0
-585 586 0
-585 -1 0
586 -587 2 0
-586 587 0
-586 -2 0
587 -588 3 0
-587 588 0
-587 -3 0
588 5 4 0
-588 -5 0
-588 -4 0
584 -589 1 0
-584 589 0
-584 -1 0
589 -590 2 0
-589 590 0
-589 -2 0
590 -588 -3 0
-590 588 0
-590 3 0
582 -591 1 0
-582 591 0
-582 -1 0
591 -592 2 0
-591 592 0
-591 -2 0
592 -573 -3 0
-592 573 0
-592 3 0
580 -593 1 0
-580 593 0
-580 -1 0
593 -594 -2 0
-593 594 0
-593 2 0
594 -576 -3 0
-594 576 0
-594 3 0
595 -596 -528 0
-595 596 0
-595 528 0
596 597 598 0
-596 -597 0
-596 -598 0
597 599 116 0
-597 -599 0
-597 -116 0
599 -574 -1 0
-599 574 0
-599 1 0
598 -600 1 0
-598 600 0
-598 -1 0
600 -572 -2 0
-600 572 0
-600 2 0
601 602 -528 0
-601 -602 0
-601 528 0
602 603 604 0
-602 -603 0
-602 -604 0
603 605 -122 0
-603 -605 0
-603 122 0
605 -586 -1 0
-605 586 0
-605 1 0
604 -605 606 0
-604 605 0
-604 -606 0
606 222 211 0
-606 -222 0
-606 -211 0
607 -608 -528 0
-607 608 0
-607 528 0
608 609 610 0
-608 -609 0
-608 -610 0
609 611 -605 0
-609 -611 0
-609 605 0
611 612 606 0
-611 -612 0
-611 -606 0
612 -560 -231 0
-612 560 0
-612 231 0
610 605 128 0
-610 -605 0
-610 -128 0
613 614 -528 0
-613 -614 0
-613 528 0
614 615 605 0
-614 -615 0
-614 -605 0
615 616 -133 0
-615 -616 0
-615 133 0
616 -617 1 0
-616 617 0
-616 -1 0
617 -554 2 0
-617 554 0
-617 -2 0
618 -619 -528 0
-618 619 0
-618 528 0
619 -620 621 0
-619 620 0
-619 -621 0
620 -622 623 0
-620 622 0
-620 -623 0
622 -624 625 0
-622 624 0
-622 -625 0
624 626 627 0
-624 -626 0
-624 -627 0
626 -605 -606 0
-626 605 0
-626 606 0
627 628 605 0
-627 -628 0
-627 -605 0
628 -629 582 0
-628 629 0
-628 -582 0
629 -630 584 0
-629 630 0
-629 -584 0
630 -631 552 0
-630 631 0
-630 -552 0
631 598 -150 0
-631 -598 0
-631 150 0
625 -632 1 0
-625 632 0
-625 -1 0
632 -575 -2 0
-632 575 0
-632 2 0
623 -633 1 0
-623 633 0
-623 -1 0
633 -590 -2 0
-633 590 0
-633 2 0
621 -634 1 0
-621 634 0
-621 -1 0
634 -592 -2 0
-634 592 0
-634 2 0
635 -636 -528 0
-635 636 0
-635 528 0
636 637 621 0
-636 -637 0
-636 -621 0
637 -638 623 0
-637 638 0
-637 -623 0
638 -639 625 0
-638 639 0
-638 -625 0
639 640 604 0
-639 -640 0
-639 -604 0
640 641 605 0
-640 -641 0
-640 -605 0
641 -642 582 0
-641 642 0
-641 -582 0
642 643 584 0
-642 -643 0
-642 -584 0
643 644 552 0
-643 -644 0
-643 -552 0
644 598 160 0
-644 -598 0
-644 -160 0
645 -646 -528 0
-645 646 0
-645 528 0
646 -647 621 0
-646 647 0
-646 -621 0
647 648 623 0
-647 -648 0
-647 -623 0
648 -649 625 0
-648 649 0
-648 -625 0
649 650 604 0
-649 -650 0
-649 -604 0
650 651 605 0
-650 -651 0
-650 -605 0
651 652 653 0
-651 -652 0
-651 -653 0
652 -582 -560 0
-652 582 0
-652 560 0
653 654 582 0
-653 -654 0
-653 -582 0
654 655 656 0
-654 -655 0
-654 -656 0
655 -584 -560 0
-655 584 0
-655 560 0
656 657 584 0
-656 -657 0
-656 -584 0
657 658 552 0
-657 -658 0
-657 -552 0
658 598 -174 0
-658 -598 0
-658 174 0
659 660 -528 0
-659 -660 0
-659 528 0
660 661 662 0
-660 -661 0
-660 -662 0
661 -663 -605 0
-661 663 0
-661 605 0
663 -606 -185 0
-663 606 0
-663 185 0
662 664 605 0
-662 -664 0
-662 -605 0
664 665 666 0
-664 -665 0
-664 -666 0
665 -582 560 0
-665 582 0
-665 -560 0
666 667 582 0
-666 -667 0
-666 -582 0
667 668 669 0
-667 -668 0
-667 -669 0
668 584 -185 0
-668 -584 0
-668 185 0
669 -584 560 0
-669 584 0
-669 -560 0
670 -671 -528 0
-670 671 0
-670 528 0
671 672 673 0
-671 -672 0
-671 -673 0
672 674 -605 0
-672 -674 0
-672 605 0
674 675 676 0
-674 -675 0
-674 -676 0
675 606 -198 0
-675 -606 0
-675 198 0
676 -606 198 0
-676 606 0
-676 -198 0
673 677 605 0
-673 -677 0
-673 -605 0
677 678 679 0
-677 -678 0
-677 -679 0
678 -582 -198 0
-678 582 0
-678 198 0
679 680 582 0
-679 -680 0
-679 -582 0
680 681 682 0
-680 -681 0
-680 -682 0
681 -584 -198 0
-681 584 0
-681 198 0
682 584 198 0
-682 -584 0
-682 -198 0
683 -684 -528 0
-683 684 0
-683 528 0
684 -685 605 0
-684 685 0
-684 -605 0
685 686 687 0
-685 -686 0
-685 -687 0
686 688 -582 0
-686 -688 0
-686 582 0
688 -222 211 0
-688 222 0
-688 -211 0
687 689 582 0
-687 -689 0
-687 -582 0
689 690 691 0
-689 -690 0
-689 -691 0
690 692 584 0
-690 -692 0
-690 -584 0
692 693 694 0
-692 -693 0
-692 -694 0
693 -598 6 0
-693 598 0
-693 -6 0
694 598 211 0
-694 -598 0
-694 -211 0
691 542 -584 0
-691 -542 0
-691 584 0
695 -696 -528 0
-695 696 0
-695 528 0
696 697 605 0
-696 -697 0
-696 -605 0
697 698 699 0
-697 -698 0
-697 -699 0
698 -688 -582 0
-698 688 0
-698 582 0
699 700 582 0
-699 -700 0
-699 -582 0
700 701 702 0
-700 -701 0
-700 -702 0
701 -688 -584 0
-701 688 0
-701 584 0
702 703 584 0
-702 -703 0
-702 -584 0
703 704 705 0
-703 -704 0
-703 -705 0
704 598 -222 0
-704 -598 0
-704 222 0
705 -598 7 0
-705 598 0
-705 -7 0
706 -707 -528 0
-706 707 0
-706 528 0
707 -708 605 0
-707 708 0
-707 -605 0
708 709 710 0
-708 -709 0
-708 -710 0
709 612 -582 0
-709 -612 0
-709 582 0
710 711 582 0
-710 -711 0
-710 -582 0
711 712 713 0
-711 -712 0
-711 -713 0
712 612 -584 0
-712 -612 0
-712 584 0
713 -714 584 0
-713 714 0
-713 -584 0
714 552 231 0
-714 -552 0
-714 -231 0
715 -716 -528 0
-715 716 0
-715 528 0
716 -717 623 0
-716 717 0
-716 -623 0
717 -718 625 0
-717 718 0
-717 -625 0
718 -719 582 0
-718 719 0
-718 -582 0
719 720 584 0
-719 -720 0
-719 -584 0
720 552 237 0
-720 -552 0
-720 -237 0
721 -722 -528 0
-721 722 0
-721 528 0
722 -723 623 0
-722 723 0
-722 -623 0
723 -724 625 0
-723 724 0
-723 -625 0
724 -725 582 0
-724 725 0
-724 -582 0
725 726 584 0
-725 -726 0
-725 -584 0
726 -727 585 0
-726 727 0
-726 -585 0
727 570 244 0
-727 -570 0
-727 -244 0
728 -729 -528 0
-728 729 0
-728 528 0
729 -730 621 0
-729 730 0
-729 -621 0
730 731 732 0
-730 -731 0
-730 -732 0
731 -733 -605 0
-731 733 0
-731 605 0
733 -606 250 0
-733 606 0
-733 -250 0
732 605 250 0
-732 -605 0
-732 -250 0
734 -735 -528 0
-734 735 0
-734 528 0
735 736 737 0
-735 -736 0
-735 -737 0
736 -738 -739 0
-736 738 0
-736 739 0
738 -315 262 0
-738 315 0
-738 -262 0
739 -740 1 0
-739 740 0
-739 -1 0
740 -741 -2 0
-740 741 0
-740 2 0
741 -555 3 0
-741 555 0
-741 -3 0
737 -742 739 0
-737 742 0
-737 -739 0
742 743 744 0
-742 -743 0
-742 -744 0
743 621 -262 0
-743 -621 0
-743 262 0
744 -745 -1 0
-744 745 0
-744 1 0
745 -741 2 0
-745 741 0
-745 -2 0
746 -747 -528 0
-746 747 0
-746 528 0
747 748 749 0
-747 -748 0
-747 -749 0
748 750 267 0
-748 -750 0
-748 -267 0
750 -571 -1 0
-750 571 0
-750 1 0
749 -750 330 0
-749 750 0
-749 -330 0
751 -752 -528 0
-751 752 0
-751 528 0
752 753 754 0
-752 -753 0
-752 -754 0
753 750 272 0
-753 -750 0
-753 -272 0
754 755 -750 0
-754 -755 0
-754 750 0
755 330 326 0
-755 -330 0
-755 -326 0
756 757 -528 0
-756 -757 0
-756 528 0
757 758 750 0
-757 -758 0
-757 -750 0
758 759 -277 0
-758 -759 0
-758 277 0
759 -760 1 0
-759 760 0
-759 -1 0
760 -594 2 0
-760 594 0
-760 -2 0
761 762 -528 0
-761 -762 0
-761 528 0
762 763 744 0
-762 -763 0
-762 -744 0
763 764 -282 0
-763 -764 0
-763 282 0
764 -765 1 0
-764 765 0
-764 -1 0
765 -587 -2 0
-765 587 0
-765 2 0
766 767 -528 0
-766 -767 0
-766 528 0
767 768 769 0
-767 -768 0
-767 -769 0
768 770 -739 0
-768 -770 0
-768 739 0
770 315 291 0
-770 -315 0
-770 -291 0
769 -771 739 0
-769 771 0
-769 -739 0
771 -772 744 0
-771 772 0
-771 -744 0
772 773 580 0
-772 -773 0
-772 -580 0
773 -774 750 0
-773 774 0
-773 -750 0
774 568 291 0
-774 -568 0
-774 -291 0
775 -776 -528 0
-775 776 0
-775 528 0
776 777 778 0
-776 -777 0
-776 -778 0
777 779 -739 0
-777 -779 0
-777 739 0
779 315 -302 0
-779 -315 0
-779 302 0
778 780 739 0
-778 -780 0
-778 -739 0
780 -781 744 0
-780 781 0
-780 -744 0
781 782 580 0
-781 -782 0
-781 -580 0
782 783 750 0
-782 -783 0
-782 -750 0
783 784 785 0
-783 -784 0
-783 -785 0
784 -568 11 0
-784 568 0
-784 -11 0
785 568 302 0
-785 -568 0
-785 -302 0
786 -787 -528 0
-786 787 0
-786 528 0
787 788 789 0
-787 -788 0
-787 -789 0
788 790 -739 0
-788 -790 0
-788 739 0
790 315 -311 0
-790 -315 0
-790 311 0
789 791 739 0
-789 -791 0
-789 -739 0
791 -792 744 0
-791 792 0
-791 -744 0
792 -793 580 0
-792 793 0
-792 -580 0
793 794 750 0
-793 -794 0
-793 -750 0
794 568 311 0
-794 -568 0
-794 -311 0
795 -796 -528 0
-795 796 0
-795 528 0
796 797 744 0
-796 -797 0
-796 -744 0
797 798 749 0
-797 -798 0
-797 -749 0
798 750 -315 0
-798 -750 0
-798 315 0
799 -800 -528 0
-799 800 0
-799 528 0
800 801 802 0
-800 -801 0
-800 -802 0
801 750 319 0
-801 -750 0
-801 -319 0
802 -750 -334 0
-802 750 0
-802 334 0
803 -804 -528 0
-803 804 0
-803 528 0
804 805 739 0
-804 -805 0
-804 -739 0
805 750 322 0
-805 -750 0
-805 -322 0
806 -807 -528 0
-806 807 0
-806 528 0
807 808 809 0
-807 -808 0
-807 -809 0
808 568 326 0
-808 -568 0
-808 -326 0
809 -568 71 0
-809 568 0
-809 -71 0
810 -811 -528 0
-810 811 0
-810 528 0
811 812 813 0
-811 -812 0
-811 -813 0
812 568 330 0
-812 -568 0
-812 -330 0
813 -568 76 0
-813 568 0
-813 -76 0
814 -815 -528 0
-814 815 0
-814 528 0
815 816 817 0
-815 -816 0
-815 -817 0
816 568 334 0
-816 -568 0
-816 -334 0
817 -568 80 0
-817 568 0
-817 -80 0
818 819 -528 0
-818 -819 0
-818 528 0
819 820 821 0
-819 -820 0
-819 -821 0
820 822 -739 0
-820 -822 0
-820 739 0
822 350 315 0
-822 -350 0
-822 -315 0
821 -823 739 0
-821 823 0
-821 -739 0
823 824 744 0
-823 -824 0
-823 -744 0
824 825 826 0
-824 -825 0
-824 -826 0
825 -827 -580 0
-825 827 0
-825 580 0
827 828 -350 0
-827 -828 0
-827 350 0
828 -829 -291 0
-828 829 0
-828 291 0
829 311 -302 0
-829 -311 0
-829 302 0
826 830 580 0
-826 -830 0
-826 -580 0
830 831 832 0
-830 -831 0
-830 -832 0
831 833 -568 0
-831 -833 0
-831 568 0
833 11 350 0
-833 -11 0
-833 -350 0
832 568 -350 0
-832 -568 0
-832 350 0
834 -835 -528 0
-834 835 0
-834 528 0
835 -836 739 0
-835 836 0
-835 -739 0
836 -837 838 0
-836 837 0
-836 -838 0
837 839 840 0
-837 -839 0
-837 -840 0
839 -626 359 0
-839 626 0
-839 -359 0
840 -841 359 0
-840 841 0
-840 -359 0
841 605 568 0
-841 -605 0
-841 -568 0
838 842 -568 0
-838 -842 0
-838 568 0
842 11 -359 0
-842 -11 0
-842 359 0
843 -844 -528 0
-843 844 0
-843 528 0
844 845 605 0
-844 -845 0
-844 -605 0
845 598 362 0
-845 -598 0
-845 -362 0
846 -847 -528 0
-846 847 0
-846 528 0
847 -848 744 0
-847 848 0
-847 -744 0
848 849 850 0
-848 -849 0
-848 -850 0
849 -605 9 0
-849 605 0
-849 -9 0
850 605 367 0
-850 -605 0
-850 -367 0
851 -528 -368 0
-851 528 0
-851 368 0
852 853 854 0
-852 -853 0
-852 -854 0
853 855 -528 0
-853 -855 0
-853 528 0
855 -531 -856 0
-855 531 0
-855 856 0
856 -857 858 0
-856 857 0
-856 -858 0
857 -859 860 0
-857 859 0
-857 -860 0
859 -861 862 0
-859 861 0
-859 -862 0
861 -863 864 0
-861 863 0
-861 -864 0
863 -865 866 0
-863 865 0
-863 -866 0
865 -867 868 0
-865 867 0
-865 -868 0
867 -869 870 0
-867 869 0
-867 -870 0
869 -871 872 0
-869 871 0
-869 -872 0
871 -873 874 0
-871 873 0
-871 -874 0
873 -875 876 0
-873 875 0
-873 -876 0
875 -877 878 0
-875 877 0
-875 -878 0
877 -879 880 0
-877 879 0
-877 -880 0
879 -881 882 0
-879 881 0
-879 -882 0
881 -883 884 0
-881 883 0
-881 -884 0
883 -885 886 0
-883 885 0
-883 -886 0
885 -887 888 0
-885 887 0
-885 -888 0
887 -889 890 0
-887 889 0
-887 -890 0
889 -891 892 0
-889 891 0
-889 -892 0
891 -893 894 0
-891 893 0
-891 -894 0
893 -895 896 0
-893 895 0
-893 -896 0
895 -897 -898 0
-895 897 0
-895 898 0
897 -899 -900 0
-897 899 0
-897 900 0
899 -901 -902 0
-899 901 0
-899 902 0
901 903 904 0
-901 -903 0
-901 -904 0
903 905 -906 0
-903 -905 0
-903 906 0
905 907 744 0
-905 -907 0
-905 -744 0
907 908 909 0
-907 -908 0
-907 -909 0
908 750 -9 0
-908 -750 0
-908 9 0
909 910 -750 0
-909 -910 0
-909 750 0
910 752 -747 0
-910 -752 0
-910 747 0
904 -905 906 0
-904 905 0
-904 -906 0
902 911 912 0
-902 -911 0
-902 -912 0
911 -913 -914 0
-911 913 0
-911 914 0
913 915 916 0
-913 -915 0
-913 -916 0
915 917 744 0
-915 -917 0
-915 -744 0
917 918 919 0
-917 -918 0
-917 -919 0
918 920 -750 0
-918 -920 0
-918 750 0
920 -921 368 0
-920 921 0
-920 -368 0
921 -922 -8 0
-921 922 0
-921 8 0
922 -923 -924 0
-922 923 0
-922 924 0
923 925 926 0
-923 -925 0
-923 -926 0
925 -927 9 0
-925 927 0
-925 -9 0
927 -752 747 0
-927 752 0
-927 -747 0
926 -928 -9 0
-926 928 0
-926 9 0
928 752 747 0
-928 -752 0
-928 -747 0
924 367 -362 0
-924 -367 0
-924 362 0
919 929 750 0
-919 -929 0
-919 -750 0
929 930 931 0
-929 -930 0
-929 -931 0
930 932 -605 0
-930 -932 0
-930 605 0
932 -933 -924 0
-932 933 0
-932 924 0
933 934 935 0
-933 -934 0
-933 -935 0
934 -936 8 0
-934 936 0
-934 -8 0
936 -608 602 0
-936 608 0
-936 -602 0
935 -937 -8 0
-935 937 0
-935 8 0
937 608 -602 0
-937 -608 0
-937 602 0
931 938 605 0
-931 -938 0
-931 -605 0
938 939 940 0
-938 -939 0
-938 -940 0
939 598 -10 0
-939 -598 0
-939 10 0
940 -598 -362 0
-940 598 0
-940 362 0
916 -744 367 0
-916 744 0
-916 -367 0
912 913 914 0
-912 -913 0
-912 -914 0
900 941 942 0
-900 -941 0
-900 -942 0
941 -943 944 0
-941 943 0
-941 -944 0
943 945 946 0
-943 -945 0
-943 -946 0
945 -910 -750 0
-945 910 0
-945 750 0
946 947 750 0
-946 -947 0
-946 -750 0
947 948 605 0
-947 -948 0
-947 -605 0
948 598 8 0
-948 -598 0
-948 -8 0
942 943 -944 0
-942 -943 0
-942 944 0
898 949 950 0
-898 -949 0
-898 -950 0
949 -951 -11 0
-949 951 0
-949 11 0
951 952 -322 0
-951 -952 0
-951 322 0
952 953 954 0
-952 -953 0
-952 -954 0
953 -815 319 0
-953 815 0
-953 -319 0
954 815 -319 0
-954 -815 0
-954 319 0
950 951 11 0
-950 -951 0
-950 -11 0
896 955 956 0
-896 -955 0
-896 -956 0
955 -957 -958 0
-955 957 0
-955 958 0
957 959 960 0
-957 -959 0
-957 -960 0
959 961 -962 0
-959 -961 0
-959 962 0
961 599 -6 0
-961 -599 0
-961 6 0
960 -961 962 0
-960 961 0
-960 -962 0
958 963 964 0
-958 -963 0
-958 -964 0
963 965 -966 0
-963 -965 0
-963 966 0
965 599 -7 0
-965 -599 0
-965 7 0
964 -965 966 0
-964 965 0
-964 -966 0
956 -967 -958 0
-956 967 0
-956 958 0
967 968 969 0
-967 -968 0
-967 -969 0
968 -970 -962 0
-968 970 0
-968 962 0
970 599 6 0
-970 -599 0
-970 -6 0
969 970 962 0
-969 -970 0
-969 -962 0
894 971 -739 0
-894 -971 0
-894 739 0
971 -359 350 0
-971 359 0
-971 -350 0
892 972 -744 0
-892 -972 0
-892 744 0
972 -973 282 0
-972 973 0
-972 -282 0
973 -545 -291 0
-973 545 0
-973 291 0
890 974 -580 0
-890 -974 0
-890 580 0
974 975 110 0
-974 -975 0
-974 -110 0
975 976 828 0
-975 -976 0
-975 -828 0
976 -977 -291 0
-976 977 0
-976 291 0
977 -311 302 0
-977 311 0
-977 -302 0
888 978 -750 0
-888 -978 0
-888 750 0
978 -979 277 0
-978 979 0
-978 -277 0
979 -980 -291 0
-979 980 0
-979 291 0
980 -311 -302 0
-980 311 0
-980 302 0
886 981 -568 0
-886 -981 0
-886 568 0
981 -982 -92 0
-981 982 0
-981 92 0
982 -545 291 0
-982 545 0
-982 -291 0
884 983 -621 0
-884 -983 0
-884 621 0
983 -262 -250 0
-983 262 0
-983 250 0
882 984 -623 0
-882 -984 0
-882 623 0
984 -244 -237 0
-984 244 0
-984 237 0
880 984 -625 0
-880 -984 0
-880 625 0
878 985 -605 0
-878 -985 0
-878 605 0
985 -986 133 0
-985 986 0
-985 -133 0
986 -546 150 0
-986 546 0
-986 -150 0
876 987 -582 0
-876 -987 0
-876 582 0
987 -988 -110 0
-987 988 0
-987 110 0
988 -989 150 0
-988 989 0
-988 -150 0
989 -174 160 0
-989 174 0
-989 -160 0
874 987 -584 0
-874 -987 0
-874 584 0
872 990 -552 0
-872 -990 0
-872 552 0
990 -991 92 0
-990 991 0
-990 -92 0
991 -992 150 0
-991 992 0
-991 -150 0
992 174 -160 0
-992 -174 0
-992 160 0
870 993 -598 0
-870 -993 0
-870 598 0
993 -994 -116 0
-993 994 0
-993 116 0
994 -995 150 0
-994 995 0
-994 -150 0
995 174 160 0
-995 -174 0
-995 -160 0
868 -585 110 0
-868 585 0
-868 -110 0
866 -570 92 0
-866 570 0
-866 -92 0
864 -764 282 0
-864 764 0
-864 -282 0
862 -759 277 0
-862 759 0
-862 -277 0
860 -616 133 0
-860 616 0
-860 -133 0
858 -599 -116 0
-858 599 0
-858 116 0
854 996 528 0
-854 -996 0
-854 -528 0
996 -997 914 0
-996 997 0
-996 -914 0
997 -998 906 0
-997 998 0
-997 -906 0
998 944 966 0
-998 -944 0
-998 -966 0
999 0
-1000 0
530 0
